(declare-sort Loc 0)
(declare-const l0 Loc)
(declare-const l1 Loc)
(declare-const l2 Loc)
(declare-const l3 Loc)
(declare-const l4 Loc)
(declare-const l5 Loc)
(declare-const l6 Loc)
(declare-const l7 Loc)
(declare-const l8 Loc)
(declare-const l9 Loc)
(declare-const l10 Loc)
(declare-const l11 Loc)
(declare-const l12 Loc)
(declare-const l13 Loc)
(assert (distinct l0 l1 l2 l3 l4 l5 l6 l7 l8 l9 l10 l11 l12 l13))

(define-fun cfg_init ( (pc Loc) (src Loc) (rel Bool) ) Bool
  (and (= pc src) rel))

(define-fun cfg_trans2 ( (pc Loc) (src Loc)
                         (pc1 Loc) (dst Loc)
                         (rel Bool) ) Bool
  (and (= pc src) (= pc1 dst) rel))

(define-fun cfg_trans3 ( (pc Loc) (exit Loc)
                         (pc1 Loc) (call Loc)
                         (pc2 Loc) (return Loc)
                         (rel Bool) ) Bool
  (and (= pc exit) (= pc1 call) (= pc2 return) rel))

(define-fun init_main ( (_pc^0 Loc) (DName^0 Int) (PdoType^0 Int) (Pdoi^0 Int) (Pdolen^0 Int) (__rho_2_^0 Int) (__rho_3_^0 Int) (a1111^0 Int) (a11^0 Int) (a77^0 Int) (a88^0 Int) (b22^0 Int) (c33^0 Int) (d44^0 Int) (dcIdi^0 Int) (i^0 Int) (lptNamei^0 Int) (num^0 Int) (pc^0 Int) (ret_IoCreateDevice1010^0 Int) (ret_PPMakeDeviceName66^0 Int) (set^0 Int) (status^0 Int) (tmp55^0 Int) (tmp99^0 Int) (unset^0 Int) ) Bool
  (cfg_init _pc^0 l13 true))

(define-fun next_main (
                 (_pc^0 Loc) (DName^0 Int) (PdoType^0 Int) (Pdoi^0 Int) (Pdolen^0 Int) (__rho_2_^0 Int) (__rho_3_^0 Int) (a1111^0 Int) (a11^0 Int) (a77^0 Int) (a88^0 Int) (b22^0 Int) (c33^0 Int) (d44^0 Int) (dcIdi^0 Int) (i^0 Int) (lptNamei^0 Int) (num^0 Int) (pc^0 Int) (ret_IoCreateDevice1010^0 Int) (ret_PPMakeDeviceName66^0 Int) (set^0 Int) (status^0 Int) (tmp55^0 Int) (tmp99^0 Int) (unset^0 Int)
                 (_pc^post Loc) (DName^post Int) (PdoType^post Int) (Pdoi^post Int) (Pdolen^post Int) (__rho_2_^post Int) (__rho_3_^post Int) (a1111^post Int) (a11^post Int) (a77^post Int) (a88^post Int) (b22^post Int) (c33^post Int) (d44^post Int) (dcIdi^post Int) (i^post Int) (lptNamei^post Int) (num^post Int) (pc^post Int) (ret_IoCreateDevice1010^post Int) (ret_PPMakeDeviceName66^post Int) (set^post Int) (status^post Int) (tmp55^post Int) (tmp99^post Int) (unset^post Int)
             ) Bool
  (or
    (cfg_trans2 _pc^0 l0 _pc^post l1 (and (and (and (and (and (and (and (and (and (and (and (and (and (and (and (and (and (and (and (and (and (and (and (and (= DName^0 DName^post) (= PdoType^0 PdoType^post)) (= Pdoi^0 Pdoi^post)) (= Pdolen^0 Pdolen^post)) (= __rho_2_^0 __rho_2_^post)) (= __rho_3_^0 __rho_3_^post)) (= a11^0 a11^post)) (= a1111^0 a1111^post)) (= a77^0 a77^post)) (= a88^0 a88^post)) (= b22^0 b22^post)) (= c33^0 c33^post)) (= d44^0 d44^post)) (= dcIdi^0 dcIdi^post)) (= i^0 i^post)) (= lptNamei^0 lptNamei^post)) (= num^0 num^post)) (= pc^0 pc^post)) (= ret_IoCreateDevice1010^0 ret_IoCreateDevice1010^post)) (= ret_PPMakeDeviceName66^0 ret_PPMakeDeviceName66^post)) (= set^0 set^post)) (= status^0 status^post)) (= tmp55^0 tmp55^post)) (= tmp99^0 tmp99^post)) (= unset^0 unset^post)))
    (cfg_trans2 _pc^0 l2 _pc^post l3 (exists ( (unset^1 Int) ) (and (and (and (and (and (and (and (and (and (and (and (and (and (and (and (and (and (and (and (and (and (and (and (and (and (= num^post 0) (= unset^1 1)) (= unset^post 0)) (= DName^0 DName^post)) (= PdoType^0 PdoType^post)) (= Pdoi^0 Pdoi^post)) (= Pdolen^0 Pdolen^post)) (= __rho_2_^0 __rho_2_^post)) (= __rho_3_^0 __rho_3_^post)) (= a11^0 a11^post)) (= a1111^0 a1111^post)) (= a77^0 a77^post)) (= a88^0 a88^post)) (= b22^0 b22^post)) (= c33^0 c33^post)) (= d44^0 d44^post)) (= dcIdi^0 dcIdi^post)) (= i^0 i^post)) (= lptNamei^0 lptNamei^post)) (= pc^0 pc^post)) (= ret_IoCreateDevice1010^0 ret_IoCreateDevice1010^post)) (= ret_PPMakeDeviceName66^0 ret_PPMakeDeviceName66^post)) (= set^0 set^post)) (= status^0 status^post)) (= tmp55^0 tmp55^post)) (= tmp99^0 tmp99^post))))
    (cfg_trans2 _pc^0 l4 _pc^post l2 (and (and (and (and (and (and (and (and (and (and (and (and (and (and (and (and (and (and (and (and (and (and (and (and (= DName^0 DName^post) (= PdoType^0 PdoType^post)) (= Pdoi^0 Pdoi^post)) (= Pdolen^0 Pdolen^post)) (= __rho_2_^0 __rho_2_^post)) (= __rho_3_^0 __rho_3_^post)) (= a11^0 a11^post)) (= a1111^0 a1111^post)) (= a77^0 a77^post)) (= a88^0 a88^post)) (= b22^0 b22^post)) (= c33^0 c33^post)) (= d44^0 d44^post)) (= dcIdi^0 dcIdi^post)) (= i^0 i^post)) (= lptNamei^0 lptNamei^post)) (= num^0 num^post)) (= pc^0 pc^post)) (= ret_IoCreateDevice1010^0 ret_IoCreateDevice1010^post)) (= ret_PPMakeDeviceName66^0 ret_PPMakeDeviceName66^post)) (= set^0 set^post)) (= status^0 status^post)) (= tmp55^0 tmp55^post)) (= tmp99^0 tmp99^post)) (= unset^0 unset^post)))
    (cfg_trans2 _pc^0 l5 _pc^post l4 (and (and (and (and (and (and (and (and (and (and (and (and (and (and (and (and (and (and (and (and (and (and (and (and (and (<= (+ 1 status^0) 2) (= DName^0 DName^post)) (= PdoType^0 PdoType^post)) (= Pdoi^0 Pdoi^post)) (= Pdolen^0 Pdolen^post)) (= __rho_2_^0 __rho_2_^post)) (= __rho_3_^0 __rho_3_^post)) (= a11^0 a11^post)) (= a1111^0 a1111^post)) (= a77^0 a77^post)) (= a88^0 a88^post)) (= b22^0 b22^post)) (= c33^0 c33^post)) (= d44^0 d44^post)) (= dcIdi^0 dcIdi^post)) (= i^0 i^post)) (= lptNamei^0 lptNamei^post)) (= num^0 num^post)) (= pc^0 pc^post)) (= ret_IoCreateDevice1010^0 ret_IoCreateDevice1010^post)) (= ret_PPMakeDeviceName66^0 ret_PPMakeDeviceName66^post)) (= set^0 set^post)) (= status^0 status^post)) (= tmp55^0 tmp55^post)) (= tmp99^0 tmp99^post)) (= unset^0 unset^post)))
    (cfg_trans2 _pc^0 l5 _pc^post l4 (and (and (and (and (and (and (and (and (and (and (and (and (and (and (and (and (and (and (and (and (and (and (and (and (and (<= 3 (+ 0 status^0)) (= DName^0 DName^post)) (= PdoType^0 PdoType^post)) (= Pdoi^0 Pdoi^post)) (= Pdolen^0 Pdolen^post)) (= __rho_2_^0 __rho_2_^post)) (= __rho_3_^0 __rho_3_^post)) (= a11^0 a11^post)) (= a1111^0 a1111^post)) (= a77^0 a77^post)) (= a88^0 a88^post)) (= b22^0 b22^post)) (= c33^0 c33^post)) (= d44^0 d44^post)) (= dcIdi^0 dcIdi^post)) (= i^0 i^post)) (= lptNamei^0 lptNamei^post)) (= num^0 num^post)) (= pc^0 pc^post)) (= ret_IoCreateDevice1010^0 ret_IoCreateDevice1010^post)) (= ret_PPMakeDeviceName66^0 ret_PPMakeDeviceName66^post)) (= set^0 set^post)) (= status^0 status^post)) (= tmp55^0 tmp55^post)) (= tmp99^0 tmp99^post)) (= unset^0 unset^post)))
    (cfg_trans2 _pc^0 l5 _pc^post l4 (and (and (and (and (and (and (and (and (and (and (and (and (and (and (and (and (and (and (and (and (and (and (and (and (and (and (<= 2 (+ 0 status^0)) (<= (+ 0 status^0) 2)) (= a1111^post (+ 0 DName^0))) (= num^post (+ 1 num^0))) (= DName^0 DName^post)) (= PdoType^0 PdoType^post)) (= Pdoi^0 Pdoi^post)) (= Pdolen^0 Pdolen^post)) (= __rho_2_^0 __rho_2_^post)) (= __rho_3_^0 __rho_3_^post)) (= a11^0 a11^post)) (= a77^0 a77^post)) (= a88^0 a88^post)) (= b22^0 b22^post)) (= c33^0 c33^post)) (= d44^0 d44^post)) (= dcIdi^0 dcIdi^post)) (= i^0 i^post)) (= lptNamei^0 lptNamei^post)) (= pc^0 pc^post)) (= ret_IoCreateDevice1010^0 ret_IoCreateDevice1010^post)) (= ret_PPMakeDeviceName66^0 ret_PPMakeDeviceName66^post)) (= set^0 set^post)) (= status^0 status^post)) (= tmp55^0 tmp55^post)) (= tmp99^0 tmp99^post)) (= unset^0 unset^post)))
    (cfg_trans2 _pc^0 l6 _pc^post l5 (and (and (and (and (and (and (and (and (and (and (and (and (and (and (and (and (and (and (and (and (and (and (and (and (= Pdoi^post 0) (= DName^0 DName^post)) (= PdoType^0 PdoType^post)) (= Pdolen^0 Pdolen^post)) (= __rho_2_^0 __rho_2_^post)) (= __rho_3_^0 __rho_3_^post)) (= a11^0 a11^post)) (= a1111^0 a1111^post)) (= a77^0 a77^post)) (= a88^0 a88^post)) (= b22^0 b22^post)) (= c33^0 c33^post)) (= d44^0 d44^post)) (= dcIdi^0 dcIdi^post)) (= i^0 i^post)) (= lptNamei^0 lptNamei^post)) (= num^0 num^post)) (= pc^0 pc^post)) (= ret_IoCreateDevice1010^0 ret_IoCreateDevice1010^post)) (= ret_PPMakeDeviceName66^0 ret_PPMakeDeviceName66^post)) (= set^0 set^post)) (= status^0 status^post)) (= tmp55^0 tmp55^post)) (= tmp99^0 tmp99^post)) (= unset^0 unset^post)))
    (cfg_trans2 _pc^0 l7 _pc^post l8 (and (and (and (and (and (and (and (and (and (and (and (and (and (and (and (and (and (and (and (and (and (and (and (and (and (and (<= 1 (+ 0 status^0)) (<= (+ 0 status^0) 1)) (= i^post (+ 1 i^0))) (= DName^0 DName^post)) (= PdoType^0 PdoType^post)) (= Pdoi^0 Pdoi^post)) (= Pdolen^0 Pdolen^post)) (= __rho_2_^0 __rho_2_^post)) (= __rho_3_^0 __rho_3_^post)) (= a11^0 a11^post)) (= a1111^0 a1111^post)) (= a77^0 a77^post)) (= a88^0 a88^post)) (= b22^0 b22^post)) (= c33^0 c33^post)) (= d44^0 d44^post)) (= dcIdi^0 dcIdi^post)) (= lptNamei^0 lptNamei^post)) (= num^0 num^post)) (= pc^0 pc^post)) (= ret_IoCreateDevice1010^0 ret_IoCreateDevice1010^post)) (= ret_PPMakeDeviceName66^0 ret_PPMakeDeviceName66^post)) (= set^0 set^post)) (= status^0 status^post)) (= tmp55^0 tmp55^post)) (= tmp99^0 tmp99^post)) (= unset^0 unset^post)))
    (cfg_trans2 _pc^0 l7 _pc^post l6 (and (and (and (and (and (and (and (and (and (and (and (and (and (and (and (and (and (and (and (and (and (and (and (and (and (<= (+ 1 status^0) 1) (= DName^0 DName^post)) (= PdoType^0 PdoType^post)) (= Pdoi^0 Pdoi^post)) (= Pdolen^0 Pdolen^post)) (= __rho_2_^0 __rho_2_^post)) (= __rho_3_^0 __rho_3_^post)) (= a11^0 a11^post)) (= a1111^0 a1111^post)) (= a77^0 a77^post)) (= a88^0 a88^post)) (= b22^0 b22^post)) (= c33^0 c33^post)) (= d44^0 d44^post)) (= dcIdi^0 dcIdi^post)) (= i^0 i^post)) (= lptNamei^0 lptNamei^post)) (= num^0 num^post)) (= pc^0 pc^post)) (= ret_IoCreateDevice1010^0 ret_IoCreateDevice1010^post)) (= ret_PPMakeDeviceName66^0 ret_PPMakeDeviceName66^post)) (= set^0 set^post)) (= status^0 status^post)) (= tmp55^0 tmp55^post)) (= tmp99^0 tmp99^post)) (= unset^0 unset^post)))
    (cfg_trans2 _pc^0 l7 _pc^post l6 (and (and (and (and (and (and (and (and (and (and (and (and (and (and (and (and (and (and (and (and (and (and (and (and (and (<= 2 (+ 0 status^0)) (= DName^0 DName^post)) (= PdoType^0 PdoType^post)) (= Pdoi^0 Pdoi^post)) (= Pdolen^0 Pdolen^post)) (= __rho_2_^0 __rho_2_^post)) (= __rho_3_^0 __rho_3_^post)) (= a11^0 a11^post)) (= a1111^0 a1111^post)) (= a77^0 a77^post)) (= a88^0 a88^post)) (= b22^0 b22^post)) (= c33^0 c33^post)) (= d44^0 d44^post)) (= dcIdi^0 dcIdi^post)) (= i^0 i^post)) (= lptNamei^0 lptNamei^post)) (= num^0 num^post)) (= pc^0 pc^post)) (= ret_IoCreateDevice1010^0 ret_IoCreateDevice1010^post)) (= ret_PPMakeDeviceName66^0 ret_PPMakeDeviceName66^post)) (= set^0 set^post)) (= status^0 status^post)) (= tmp55^0 tmp55^post)) (= tmp99^0 tmp99^post)) (= unset^0 unset^post)))
    (cfg_trans2 _pc^0 l8 _pc^post l9 (and (and (and (and (and (and (and (and (and (and (and (and (and (and (and (and (and (and (and (and (and (and (and (and (= DName^0 DName^post) (= PdoType^0 PdoType^post)) (= Pdoi^0 Pdoi^post)) (= Pdolen^0 Pdolen^post)) (= __rho_2_^0 __rho_2_^post)) (= __rho_3_^0 __rho_3_^post)) (= a11^0 a11^post)) (= a1111^0 a1111^post)) (= a77^0 a77^post)) (= a88^0 a88^post)) (= b22^0 b22^post)) (= c33^0 c33^post)) (= d44^0 d44^post)) (= dcIdi^0 dcIdi^post)) (= i^0 i^post)) (= lptNamei^0 lptNamei^post)) (= num^0 num^post)) (= pc^0 pc^post)) (= ret_IoCreateDevice1010^0 ret_IoCreateDevice1010^post)) (= ret_PPMakeDeviceName66^0 ret_PPMakeDeviceName66^post)) (= set^0 set^post)) (= status^0 status^post)) (= tmp55^0 tmp55^post)) (= tmp99^0 tmp99^post)) (= unset^0 unset^post)))
    (cfg_trans2 _pc^0 l10 _pc^post l7 (exists ( (pc^1 Int) ) (and (and (and (and (and (and (and (and (and (and (and (and (and (and (and (and (and (and (and (and (and (and (and (and (and (and (<= (+ 0 DName^0) 0) (= a77^post (+ 0 DName^0))) (= a88^post (+ 0 Pdoi^0))) (= tmp99^post tmp99^post)) (= ret_IoCreateDevice1010^post (+ 0 tmp99^post))) (= __rho_3_^post (+ 0 ret_IoCreateDevice1010^post))) (= pc^1 1)) (= pc^post 0)) (= status^post (+ 0 __rho_3_^post))) (= DName^0 DName^post)) (= PdoType^0 PdoType^post)) (= Pdoi^0 Pdoi^post)) (= Pdolen^0 Pdolen^post)) (= __rho_2_^0 __rho_2_^post)) (= a11^0 a11^post)) (= a1111^0 a1111^post)) (= b22^0 b22^post)) (= c33^0 c33^post)) (= d44^0 d44^post)) (= dcIdi^0 dcIdi^post)) (= i^0 i^post)) (= lptNamei^0 lptNamei^post)) (= num^0 num^post)) (= ret_PPMakeDeviceName66^0 ret_PPMakeDeviceName66^post)) (= set^0 set^post)) (= tmp55^0 tmp55^post)) (= unset^0 unset^post))))
    (cfg_trans2 _pc^0 l10 _pc^post l2 (and (and (and (and (and (and (and (and (and (and (and (and (and (and (and (and (and (and (and (and (and (and (and (and (and (<= 1 (+ 0 DName^0)) (= DName^0 DName^post)) (= PdoType^0 PdoType^post)) (= Pdoi^0 Pdoi^post)) (= Pdolen^0 Pdolen^post)) (= __rho_2_^0 __rho_2_^post)) (= __rho_3_^0 __rho_3_^post)) (= a11^0 a11^post)) (= a1111^0 a1111^post)) (= a77^0 a77^post)) (= a88^0 a88^post)) (= b22^0 b22^post)) (= c33^0 c33^post)) (= d44^0 d44^post)) (= dcIdi^0 dcIdi^post)) (= i^0 i^post)) (= lptNamei^0 lptNamei^post)) (= num^0 num^post)) (= pc^0 pc^post)) (= ret_IoCreateDevice1010^0 ret_IoCreateDevice1010^post)) (= ret_PPMakeDeviceName66^0 ret_PPMakeDeviceName66^post)) (= set^0 set^post)) (= status^0 status^post)) (= tmp55^0 tmp55^post)) (= tmp99^0 tmp99^post)) (= unset^0 unset^post)))
    (cfg_trans2 _pc^0 l3 _pc^post l11 (and (and (and (and (and (and (and (and (and (and (and (and (and (and (and (and (and (and (and (and (and (and (and (and (= DName^0 DName^post) (= PdoType^0 PdoType^post)) (= Pdoi^0 Pdoi^post)) (= Pdolen^0 Pdolen^post)) (= __rho_2_^0 __rho_2_^post)) (= __rho_3_^0 __rho_3_^post)) (= a11^0 a11^post)) (= a1111^0 a1111^post)) (= a77^0 a77^post)) (= a88^0 a88^post)) (= b22^0 b22^post)) (= c33^0 c33^post)) (= d44^0 d44^post)) (= dcIdi^0 dcIdi^post)) (= i^0 i^post)) (= lptNamei^0 lptNamei^post)) (= num^0 num^post)) (= pc^0 pc^post)) (= ret_IoCreateDevice1010^0 ret_IoCreateDevice1010^post)) (= ret_PPMakeDeviceName66^0 ret_PPMakeDeviceName66^post)) (= set^0 set^post)) (= status^0 status^post)) (= tmp55^0 tmp55^post)) (= tmp99^0 tmp99^post)) (= unset^0 unset^post)))
    (cfg_trans2 _pc^0 l11 _pc^post l3 (and (and (and (and (and (and (and (and (and (and (and (and (and (and (and (and (and (and (and (and (and (and (and (and (= DName^0 DName^post) (= PdoType^0 PdoType^post)) (= Pdoi^0 Pdoi^post)) (= Pdolen^0 Pdolen^post)) (= __rho_2_^0 __rho_2_^post)) (= __rho_3_^0 __rho_3_^post)) (= a11^0 a11^post)) (= a1111^0 a1111^post)) (= a77^0 a77^post)) (= a88^0 a88^post)) (= b22^0 b22^post)) (= c33^0 c33^post)) (= d44^0 d44^post)) (= dcIdi^0 dcIdi^post)) (= i^0 i^post)) (= lptNamei^0 lptNamei^post)) (= num^0 num^post)) (= pc^0 pc^post)) (= ret_IoCreateDevice1010^0 ret_IoCreateDevice1010^post)) (= ret_PPMakeDeviceName66^0 ret_PPMakeDeviceName66^post)) (= set^0 set^post)) (= status^0 status^post)) (= tmp55^0 tmp55^post)) (= tmp99^0 tmp99^post)) (= unset^0 unset^post)))
    (cfg_trans2 _pc^0 l9 _pc^post l10 (and (and (and (and (and (and (and (and (and (and (and (and (and (and (and (and (and (and (and (and (and (and (and (and (and (<= (+ 1 i^0) (+ 0 Pdolen^0)) (= a11^post (+ 0 lptNamei^0))) (= b22^post (+ 0 PdoType^0))) (= c33^post (+ 0 dcIdi^0))) (= d44^post (+ 0 num^0))) (= tmp55^post tmp55^post)) (= ret_PPMakeDeviceName66^post (+ 0 tmp55^post))) (= __rho_2_^post (+ 0 ret_PPMakeDeviceName66^post))) (= DName^post (+ 0 __rho_2_^post))) (= PdoType^0 PdoType^post)) (= Pdoi^0 Pdoi^post)) (= Pdolen^0 Pdolen^post)) (= __rho_3_^0 __rho_3_^post)) (= a1111^0 a1111^post)) (= a77^0 a77^post)) (= a88^0 a88^post)) (= dcIdi^0 dcIdi^post)) (= i^0 i^post)) (= lptNamei^0 lptNamei^post)) (= num^0 num^post)) (= pc^0 pc^post)) (= ret_IoCreateDevice1010^0 ret_IoCreateDevice1010^post)) (= set^0 set^post)) (= status^0 status^post)) (= tmp99^0 tmp99^post)) (= unset^0 unset^post)))
    (cfg_trans2 _pc^0 l9 _pc^post l2 (and (and (and (and (and (and (and (and (and (and (and (and (and (and (and (and (and (and (and (and (and (and (and (and (and (<= (+ 0 Pdolen^0) (+ 0 i^0)) (= DName^0 DName^post)) (= PdoType^0 PdoType^post)) (= Pdoi^0 Pdoi^post)) (= Pdolen^0 Pdolen^post)) (= __rho_2_^0 __rho_2_^post)) (= __rho_3_^0 __rho_3_^post)) (= a11^0 a11^post)) (= a1111^0 a1111^post)) (= a77^0 a77^post)) (= a88^0 a88^post)) (= b22^0 b22^post)) (= c33^0 c33^post)) (= d44^0 d44^post)) (= dcIdi^0 dcIdi^post)) (= i^0 i^post)) (= lptNamei^0 lptNamei^post)) (= num^0 num^post)) (= pc^0 pc^post)) (= ret_IoCreateDevice1010^0 ret_IoCreateDevice1010^post)) (= ret_PPMakeDeviceName66^0 ret_PPMakeDeviceName66^post)) (= set^0 set^post)) (= status^0 status^post)) (= tmp55^0 tmp55^post)) (= tmp99^0 tmp99^post)) (= unset^0 unset^post)))
    (cfg_trans2 _pc^0 l12 _pc^post l8 (exists ( (set^1 Int) (set^2 Int) ) (and (and (and (and (and (and (and (and (and (and (and (and (and (and (and (and (and (and (and (and (and (and (and (and (and (and (= unset^post 0) (= set^1 (+ 0 unset^post))) (= set^2 1)) (= set^post 0)) (= DName^0 DName^post)) (= PdoType^0 PdoType^post)) (= Pdoi^0 Pdoi^post)) (= Pdolen^0 Pdolen^post)) (= __rho_2_^0 __rho_2_^post)) (= __rho_3_^0 __rho_3_^post)) (= a11^0 a11^post)) (= a1111^0 a1111^post)) (= a77^0 a77^post)) (= a88^0 a88^post)) (= b22^0 b22^post)) (= c33^0 c33^post)) (= d44^0 d44^post)) (= dcIdi^0 dcIdi^post)) (= i^0 i^post)) (= lptNamei^0 lptNamei^post)) (= num^0 num^post)) (= pc^0 pc^post)) (= ret_IoCreateDevice1010^0 ret_IoCreateDevice1010^post)) (= ret_PPMakeDeviceName66^0 ret_PPMakeDeviceName66^post)) (= status^0 status^post)) (= tmp55^0 tmp55^post)) (= tmp99^0 tmp99^post))))
    (cfg_trans2 _pc^0 l13 _pc^post l12 (and (and (and (and (and (and (and (and (and (and (and (and (and (and (and (and (and (and (and (and (and (and (and (and (= DName^0 DName^post) (= PdoType^0 PdoType^post)) (= Pdoi^0 Pdoi^post)) (= Pdolen^0 Pdolen^post)) (= __rho_2_^0 __rho_2_^post)) (= __rho_3_^0 __rho_3_^post)) (= a11^0 a11^post)) (= a1111^0 a1111^post)) (= a77^0 a77^post)) (= a88^0 a88^post)) (= b22^0 b22^post)) (= c33^0 c33^post)) (= d44^0 d44^post)) (= dcIdi^0 dcIdi^post)) (= i^0 i^post)) (= lptNamei^0 lptNamei^post)) (= num^0 num^post)) (= pc^0 pc^post)) (= ret_IoCreateDevice1010^0 ret_IoCreateDevice1010^post)) (= ret_PPMakeDeviceName66^0 ret_PPMakeDeviceName66^post)) (= set^0 set^post)) (= status^0 status^post)) (= tmp55^0 tmp55^post)) (= tmp99^0 tmp99^post)) (= unset^0 unset^post)))
  )
)
